17 28 38 94 1 67 0 68 61 62 83 21 87 32 91 9 52 23 8 35 44 63 41 73 86 89 50 98 33 70 29 4 30 10 15 65 81 58 31 27 78 42 22 90 11 26 79 2 14 53 80 55 34 64 47 66 74 54 13 3 84 77 96 16 51 40 71 20 59 36 95 88 92 12 60 82 6 49 46 93 85 45 56 75 76 97 43 5 7 39 99 19 72 25 69 24 48 18 37 57